
;this file is automatically generated: Thu Jul 21 16:31:16 IST 2016

;declarations generated

(declare-fun s37 () Int )
(declare-fun s36 () Int )
(declare-fun s35 () Int )
(declare-fun s34 () Int )
(declare-fun s33 () Int )
(declare-fun s32 () Int )
(declare-fun s31 () Int )
(declare-fun s30 () Int )
(declare-fun s39 () Int )
(declare-fun s38 () Int )
(declare-fun a_16_9 () Int )
(declare-fun a_16_0 () Int )
(declare-fun a_16_3 () Int )
(declare-fun s40 () Int )
(declare-fun a_12_9 () Int )
(declare-fun a_11_33 () Int )
(declare-fun a_12_0 () Int )
(declare-fun a_12_2 () Int )
(declare-fun a_3_10 () Int )
(declare-fun A11 () Int )
(declare-fun A10 () Int )
(declare-fun A13 () Int )
(declare-fun a_2_32 () Int )
(declare-fun A12 () Int )
(declare-fun A15 () Int )
(declare-fun A14 () Int )
(declare-fun A17 () Int )
(declare-fun A16 () Int )
(declare-fun a_15_2 () Int )
(declare-fun A2 () Int )
(declare-fun a_16_10 () Int )
(declare-fun A1 () Int )
(declare-fun A4 () Int )
(declare-fun a_15_3 () Int )
(declare-fun A3 () Int )
(declare-fun A6 () Int )
(declare-fun A5 () Int )
(declare-fun A8 () Int )
(declare-fun A7 () Int )
(declare-fun a_15_9 () Int )
(declare-fun A9 () Int )
(declare-fun a_17_9 () Int )
(declare-fun a_17_3 () Int )
(declare-fun a_0_8 () Int )
(declare-fun a_0_2 () Int )
(declare-fun a_0_3 () Int )
(declare-fun a_17_2 () Int )
(declare-fun a_10_32 () Int )
(declare-fun A0 () Int )
(declare-fun a_2_10 () Int )
(declare-fun a_16_33 () Int )
(declare-fun a_13_9 () Int )
(declare-fun a_13_0 () Int )
(declare-fun a_13_2 () Int )
(declare-fun a_11_2 () Int )
(declare-fun a_11_3 () Int )
(declare-fun a_11_8 () Int )
(declare-fun a_11_9 () Int )
(declare-fun s9 () Int )
(declare-fun s7 () Int )
(declare-fun s8 () Int )
(declare-fun s5 () Int )
(declare-fun s6 () Int )
(declare-fun s3 () Int )
(declare-fun s4 () Int )
(declare-fun s0 () Int )
(declare-fun a_4_8 () Int )
(declare-fun s2 () Int )
(declare-fun s1 () Int )
(declare-fun a_7_9 () Int )
(declare-fun a_7_8 () Int )
(declare-fun a_4_3 () Int )
(declare-fun a_3_0 () Int )
(declare-fun a_8_8 () Int )
(declare-fun a_3_2 () Int )
(declare-fun a_4_0 () Int )
(declare-fun a_8_9 () Int )
(declare-fun a_3_8 () Int )
(declare-fun a_8_0 () Int )
(declare-fun a_8_3 () Int )
(declare-fun a_7_2 () Int )
(declare-fun a_7_0 () Int )
(declare-fun a_1_10 () Int )
(declare-fun a_15_32 () Int )
(declare-fun a_14_10 () Int )
(declare-fun a_12_32 () Int )
(declare-fun a_4_10 () Int )
(declare-fun a_14_3 () Int )
(declare-fun a_14_0 () Int )
(declare-fun a_0_10 () Int )
(declare-fun a_17_10 () Int )
(declare-fun a_14_9 () Int )
(declare-fun a_10_9 () Int )
(declare-fun a_10_8 () Int )
(declare-fun a_1_33 () Int )
(declare-fun a_9_33 () Int )
(declare-fun a_10_3 () Int )
(declare-fun a_10_2 () Int )
(declare-fun a_15_10 () Int )
(declare-fun a_8_32 () Int )
(declare-fun a_7_33 () Int )
(declare-fun a_13_33 () Int )
(declare-fun a_13_10 () Int )
(declare-fun a_4_33 () Int )
(declare-fun a_12_10 () Int )
(declare-fun a_0_32 () Int )
(declare-fun a_2_0 () Int )
(declare-fun a_1_8 () Int )
(declare-fun a_2_8 () Int )
(declare-fun a_5_33 () Int )
(declare-fun a_1_3 () Int )
(declare-fun a_1_2 () Int )
(declare-fun a_2_3 () Int )
(declare-fun a_3_32 () Int )
(declare-fun a_5_2 () Int )
(declare-fun a_5_0 () Int )
(declare-fun a_6_2 () Int )
(declare-fun a_6_0 () Int )
(declare-fun a_6_9 () Int )
(declare-fun a_6_8 () Int )
(declare-fun a_6_32 () Int )
(declare-fun s29 () Int )
(declare-fun s27 () Int )
(declare-fun a_5_10 () Int )
(declare-fun s28 () Int )
(declare-fun s25 () Int )
(declare-fun s26 () Int )
(declare-fun s23 () Int )
(declare-fun s24 () Int )
(declare-fun s21 () Int )
(declare-fun s22 () Int )
(declare-fun a_14_32 () Int )
(declare-fun a_5_8 () Int )
(declare-fun s20 () Int )
(declare-fun a_9_8 () Int )
(declare-fun a_9_9 () Int )
(declare-fun a_9_0 () Int )
(declare-fun a_9_3 () Int )
(declare-fun s16 () Int )
(declare-fun s17 () Int )
(declare-fun s18 () Int )
(declare-fun s19 () Int )
(declare-fun s12 () Int )
(declare-fun s13 () Int )
(declare-fun a_17_33 () Int )
(declare-fun s14 () Int )
(declare-fun s15 () Int )
(declare-fun s10 () Int )
(declare-fun s11 () Int )

;formula(s) generated
(assert (and (>= A0 0) (<= A0 1)))
(assert (and (>= A1 0) (<= A1 1)))
(assert (and (>= A2 0) (<= A2 1)))
(assert (and (>= A3 0) (<= A3 1)))
(assert (and (>= A4 0) (<= A4 1)))
(assert (and (>= A5 0) (<= A5 1)))
(assert (and (>= A6 0) (<= A6 1)))
(assert (and (>= A7 0) (<= A7 1)))
(assert (and (>= A8 0) (<= A8 1)))
(assert (and (>= A9 0) (<= A9 1)))
(assert (and (>= A10 0) (<= A10 1)))
(assert (and (>= A11 0) (<= A11 1)))
(assert (and (>= A12 0) (<= A12 1)))
(assert (and (>= A13 0) (<= A13 1)))
(assert (and (>= A14 0) (<= A14 1)))
(assert (and (>= A15 0) (<= A15 1)))
(assert (and (>= A16 0) (<= A16 1)))
(assert (and (>= A17 0) (<= A17 1)))
(assert (and (>= s0 0) (<= s0 1)))
(assert (and (>= s1 0) (<= s1 1)))
(assert (and (>= s2 0) (<= s2 1)))
(assert (and (>= s3 0) (<= s3 1)))
(assert (and (>= s4 0) (<= s4 1)))
(assert (and (>= s5 0) (<= s5 1)))
(assert (and (>= s6 0) (<= s6 1)))
(assert (and (>= s7 0) (<= s7 1)))
(assert (and (>= s8 0) (<= s8 1)))
(assert (and (>= s9 0) (<= s9 1)))
(assert (and (>= s10 0) (<= s10 1)))
(assert (and (>= s11 0) (<= s11 1)))
(assert (and (>= s12 0) (<= s12 1)))
(assert (and (>= s13 0) (<= s13 1)))
(assert (and (>= s14 0) (<= s14 1)))
(assert (and (>= s15 0) (<= s15 1)))
(assert (and (>= s16 0) (<= s16 1)))
(assert (and (>= s17 0) (<= s17 1)))
(assert (and (>= s18 0) (<= s18 1)))
(assert (and (>= s19 0) (<= s19 1)))
(assert (and (>= s20 0) (<= s20 1)))
(assert (and (>= s21 0) (<= s21 1)))
(assert (and (>= s22 0) (<= s22 1)))
(assert (and (>= s23 0) (<= s23 1)))
(assert (and (>= s24 0) (<= s24 1)))
(assert (and (>= s25 0) (<= s25 1)))
(assert (and (>= s26 0) (<= s26 1)))
(assert (and (>= s27 0) (<= s27 1)))
(assert (and (>= s28 0) (<= s28 1)))
(assert (and (>= s29 0) (<= s29 1)))
(assert (and (>= s30 0) (<= s30 1)))
(assert (and (>= s31 0) (<= s31 1)))
(assert (and (>= s32 0) (<= s32 1)))
(assert (and (>= s33 0) (<= s33 1)))
(assert (and (>= s34 0) (<= s34 1)))
(assert (and (>= s35 0) (<= s35 1)))
(assert (and (>= s36 0) (<= s36 1)))
(assert (and (>= s37 0) (<= s37 1)))
(assert (and (>= s38 0) (<= s38 1)))
(assert (and (>= s39 0) (<= s39 1)))
(assert (and (>= s40 0) (<= s40 1)))
(assert (and (>= a_0_2 0) (<= a_0_2 1)))
(assert (and (>= a_0_3 0) (<= a_0_3 1)))
(assert (and (>= a_0_8 0) (<= a_0_8 1)))
(assert (and (>= a_0_10 0) (<= a_0_10 1)))
(assert (and (>= a_0_32 0) (<= a_0_32 1)))
(assert (and (>= a_1_2 0) (<= a_1_2 1)))
(assert (and (>= a_1_3 0) (<= a_1_3 1)))
(assert (and (>= a_1_8 0) (<= a_1_8 1)))
(assert (and (>= a_1_10 0) (<= a_1_10 1)))
(assert (and (>= a_1_33 0) (<= a_1_33 1)))
(assert (and (>= a_2_0 0) (<= a_2_0 1)))
(assert (and (>= a_2_3 0) (<= a_2_3 1)))
(assert (and (>= a_2_8 0) (<= a_2_8 1)))
(assert (and (>= a_2_10 0) (<= a_2_10 1)))
(assert (and (>= a_2_32 0) (<= a_2_32 1)))
(assert (and (>= a_3_0 0) (<= a_3_0 1)))
(assert (and (>= a_3_2 0) (<= a_3_2 1)))
(assert (and (>= a_3_8 0) (<= a_3_8 1)))
(assert (and (>= a_3_10 0) (<= a_3_10 1)))
(assert (and (>= a_3_32 0) (<= a_3_32 1)))
(assert (and (>= a_4_0 0) (<= a_4_0 1)))
(assert (and (>= a_4_3 0) (<= a_4_3 1)))
(assert (and (>= a_4_8 0) (<= a_4_8 1)))
(assert (and (>= a_4_10 0) (<= a_4_10 1)))
(assert (and (>= a_4_33 0) (<= a_4_33 1)))
(assert (and (>= a_5_0 0) (<= a_5_0 1)))
(assert (and (>= a_5_2 0) (<= a_5_2 1)))
(assert (and (>= a_5_8 0) (<= a_5_8 1)))
(assert (and (>= a_5_10 0) (<= a_5_10 1)))
(assert (and (>= a_5_33 0) (<= a_5_33 1)))
(assert (and (>= a_6_0 0) (<= a_6_0 1)))
(assert (and (>= a_6_2 0) (<= a_6_2 1)))
(assert (and (>= a_6_8 0) (<= a_6_8 1)))
(assert (and (>= a_6_9 0) (<= a_6_9 1)))
(assert (and (>= a_6_32 0) (<= a_6_32 1)))
(assert (and (>= a_7_0 0) (<= a_7_0 1)))
(assert (and (>= a_7_2 0) (<= a_7_2 1)))
(assert (and (>= a_7_8 0) (<= a_7_8 1)))
(assert (and (>= a_7_9 0) (<= a_7_9 1)))
(assert (and (>= a_7_33 0) (<= a_7_33 1)))
(assert (and (>= a_8_0 0) (<= a_8_0 1)))
(assert (and (>= a_8_3 0) (<= a_8_3 1)))
(assert (and (>= a_8_8 0) (<= a_8_8 1)))
(assert (and (>= a_8_9 0) (<= a_8_9 1)))
(assert (and (>= a_8_32 0) (<= a_8_32 1)))
(assert (and (>= a_9_0 0) (<= a_9_0 1)))
(assert (and (>= a_9_3 0) (<= a_9_3 1)))
(assert (and (>= a_9_8 0) (<= a_9_8 1)))
(assert (and (>= a_9_9 0) (<= a_9_9 1)))
(assert (and (>= a_9_33 0) (<= a_9_33 1)))
(assert (and (>= a_10_2 0) (<= a_10_2 1)))
(assert (and (>= a_10_3 0) (<= a_10_3 1)))
(assert (and (>= a_10_8 0) (<= a_10_8 1)))
(assert (and (>= a_10_9 0) (<= a_10_9 1)))
(assert (and (>= a_10_32 0) (<= a_10_32 1)))
(assert (and (>= a_11_2 0) (<= a_11_2 1)))
(assert (and (>= a_11_3 0) (<= a_11_3 1)))
(assert (and (>= a_11_8 0) (<= a_11_8 1)))
(assert (and (>= a_11_9 0) (<= a_11_9 1)))
(assert (and (>= a_11_33 0) (<= a_11_33 1)))
(assert (and (>= a_12_0 0) (<= a_12_0 1)))
(assert (and (>= a_12_2 0) (<= a_12_2 1)))
(assert (and (>= a_12_9 0) (<= a_12_9 1)))
(assert (and (>= a_12_10 0) (<= a_12_10 1)))
(assert (and (>= a_12_32 0) (<= a_12_32 1)))
(assert (and (>= a_13_0 0) (<= a_13_0 1)))
(assert (and (>= a_13_2 0) (<= a_13_2 1)))
(assert (and (>= a_13_9 0) (<= a_13_9 1)))
(assert (and (>= a_13_10 0) (<= a_13_10 1)))
(assert (and (>= a_13_33 0) (<= a_13_33 1)))
(assert (and (>= a_14_0 0) (<= a_14_0 1)))
(assert (and (>= a_14_3 0) (<= a_14_3 1)))
(assert (and (>= a_14_9 0) (<= a_14_9 1)))
(assert (and (>= a_14_10 0) (<= a_14_10 1)))
(assert (and (>= a_14_32 0) (<= a_14_32 1)))
(assert (and (>= a_15_2 0) (<= a_15_2 1)))
(assert (and (>= a_15_3 0) (<= a_15_3 1)))
(assert (and (>= a_15_9 0) (<= a_15_9 1)))
(assert (and (>= a_15_10 0) (<= a_15_10 1)))
(assert (and (>= a_15_32 0) (<= a_15_32 1)))
(assert (and (>= a_16_0 0) (<= a_16_0 1)))
(assert (and (>= a_16_3 0) (<= a_16_3 1)))
(assert (and (>= a_16_9 0) (<= a_16_9 1)))
(assert (and (>= a_16_10 0) (<= a_16_10 1)))
(assert (and (>= a_16_33 0) (<= a_16_33 1)))
(assert (and (>= a_17_2 0) (<= a_17_2 1)))
(assert (and (>= a_17_3 0) (<= a_17_3 1)))
(assert (and (>= a_17_9 0) (<= a_17_9 1)))
(assert (and (>= a_17_10 0) (<= a_17_10 1)))
(assert (and (>= a_17_33 0) (<= a_17_33 1)))
(assert (=> (= s0 1) (and (and (and (and (and (and (and (and (and (and (and (= a_2_0 1) (= a_3_0 1)) (= a_4_0 1)) (= a_5_0 1)) (= a_6_0 1)) (= a_7_0 1)) (= a_8_0 1)) (= a_9_0 1)) (= a_12_0 1)) (= a_13_0 1)) (= a_14_0 1)) (= a_16_0 1))))
(assert (=> (= s0 0) (and (and (and (and (and (and (and (and (and (and (and (= a_2_0 0) (= a_3_0 0)) (= a_4_0 0)) (= a_5_0 0)) (= a_6_0 0)) (= a_7_0 0)) (= a_8_0 0)) (= a_9_0 0)) (= a_12_0 0)) (= a_13_0 0)) (= a_14_0 0)) (= a_16_0 0))))
(assert (= s1 0))
(assert (=> (= s2 1) (and (and (and (and (and (and (and (and (and (and (and (= a_0_2 1) (= a_1_2 1)) (= a_3_2 1)) (= a_5_2 1)) (= a_6_2 1)) (= a_7_2 1)) (= a_10_2 1)) (= a_11_2 1)) (= a_12_2 1)) (= a_13_2 1)) (= a_15_2 1)) (= a_17_2 1))))
(assert (=> (= s2 0) (and (and (and (and (and (and (and (and (and (and (and (= a_0_2 0) (= a_1_2 0)) (= a_3_2 0)) (= a_5_2 0)) (= a_6_2 0)) (= a_7_2 0)) (= a_10_2 0)) (= a_11_2 0)) (= a_12_2 0)) (= a_13_2 0)) (= a_15_2 0)) (= a_17_2 0))))
(assert (=> (= s3 1) (and (and (and (and (and (and (and (and (and (and (and (= a_0_3 1) (= a_1_3 1)) (= a_2_3 1)) (= a_4_3 1)) (= a_8_3 1)) (= a_9_3 1)) (= a_10_3 1)) (= a_11_3 1)) (= a_14_3 1)) (= a_15_3 1)) (= a_16_3 1)) (= a_17_3 1))))
(assert (=> (= s3 0) (and (and (and (and (and (and (and (and (and (and (and (= a_0_3 0) (= a_1_3 0)) (= a_2_3 0)) (= a_4_3 0)) (= a_8_3 0)) (= a_9_3 0)) (= a_10_3 0)) (= a_11_3 0)) (= a_14_3 0)) (= a_15_3 0)) (= a_16_3 0)) (= a_17_3 0))))
(assert (= s4 0))
(assert (= s5 0))
(assert (= s6 0))
(assert (= s7 0))
(assert (=> (= s8 1) (and (and (and (and (and (and (and (and (and (and (and (= a_0_8 1) (= a_1_8 1)) (= a_2_8 1)) (= a_3_8 1)) (= a_4_8 1)) (= a_5_8 1)) (= a_6_8 1)) (= a_7_8 1)) (= a_8_8 1)) (= a_9_8 1)) (= a_10_8 1)) (= a_11_8 1))))
(assert (=> (= s8 0) (and (and (and (and (and (and (and (and (and (and (and (= a_0_8 0) (= a_1_8 0)) (= a_2_8 0)) (= a_3_8 0)) (= a_4_8 0)) (= a_5_8 0)) (= a_6_8 0)) (= a_7_8 0)) (= a_8_8 0)) (= a_9_8 0)) (= a_10_8 0)) (= a_11_8 0))))
(assert (=> (= s9 1) (and (and (and (and (and (and (and (and (and (and (and (= a_6_9 1) (= a_7_9 1)) (= a_8_9 1)) (= a_9_9 1)) (= a_10_9 1)) (= a_11_9 1)) (= a_12_9 1)) (= a_13_9 1)) (= a_14_9 1)) (= a_15_9 1)) (= a_16_9 1)) (= a_17_9 1))))
(assert (=> (= s9 0) (and (and (and (and (and (and (and (and (and (and (and (= a_6_9 0) (= a_7_9 0)) (= a_8_9 0)) (= a_9_9 0)) (= a_10_9 0)) (= a_11_9 0)) (= a_12_9 0)) (= a_13_9 0)) (= a_14_9 0)) (= a_15_9 0)) (= a_16_9 0)) (= a_17_9 0))))
(assert (=> (= s10 1) (and (and (and (and (and (and (and (and (and (and (and (= a_0_10 1) (= a_1_10 1)) (= a_2_10 1)) (= a_3_10 1)) (= a_4_10 1)) (= a_5_10 1)) (= a_12_10 1)) (= a_13_10 1)) (= a_14_10 1)) (= a_15_10 1)) (= a_16_10 1)) (= a_17_10 1))))
(assert (=> (= s10 0) (and (and (and (and (and (and (and (and (and (and (and (= a_0_10 0) (= a_1_10 0)) (= a_2_10 0)) (= a_3_10 0)) (= a_4_10 0)) (= a_5_10 0)) (= a_12_10 0)) (= a_13_10 0)) (= a_14_10 0)) (= a_15_10 0)) (= a_16_10 0)) (= a_17_10 0))))
(assert (= s11 0))
(assert (= s12 0))
(assert (= s13 0))
(assert (= s14 0))
(assert (= s15 0))
(assert (= s16 0))
(assert (= s17 0))
(assert (= s18 0))
(assert (= s19 0))
(assert (= s20 0))
(assert (= s21 0))
(assert (= s22 0))
(assert (= s23 0))
(assert (= s24 0))
(assert (= s25 0))
(assert (= s26 0))
(assert (= s27 0))
(assert (= s28 0))
(assert (= s29 0))
(assert (= s30 0))
(assert (= s31 0))
(assert (=> (= s32 1) (and (and (and (and (and (and (and (and (= a_0_32 1) (= a_2_32 1)) (= a_3_32 1)) (= a_6_32 1)) (= a_8_32 1)) (= a_10_32 1)) (= a_12_32 1)) (= a_14_32 1)) (= a_15_32 1))))
(assert (=> (= s32 0) (and (and (and (and (and (and (and (and (= a_0_32 0) (= a_2_32 0)) (= a_3_32 0)) (= a_6_32 0)) (= a_8_32 0)) (= a_10_32 0)) (= a_12_32 0)) (= a_14_32 0)) (= a_15_32 0))))
(assert (=> (= s33 1) (and (and (and (and (and (and (and (and (= a_1_33 1) (= a_4_33 1)) (= a_5_33 1)) (= a_7_33 1)) (= a_9_33 1)) (= a_11_33 1)) (= a_13_33 1)) (= a_16_33 1)) (= a_17_33 1))))
(assert (=> (= s33 0) (and (and (and (and (and (and (and (and (= a_1_33 0) (= a_4_33 0)) (= a_5_33 0)) (= a_7_33 0)) (= a_9_33 0)) (= a_11_33 0)) (= a_13_33 0)) (= a_16_33 0)) (= a_17_33 0))))
(assert (= s34 0))
(assert (= s35 0))
(assert (= s36 0))
(assert (= s37 0))
(assert (= s38 0))
(assert (= s39 0))
(assert (= s40 0))
(assert (=> (or (or (or (or (= a_0_2 1) (= a_0_3 1)) (= a_0_8 1)) (= a_0_10 1)) (= a_0_32 1)) (= A0 1)))
(assert (=> (and (and (and (and (= a_0_2 0) (= a_0_3 0)) (= a_0_8 0)) (= a_0_10 0)) (= a_0_32 0)) (= A0 0)))
(assert (=> (or (or (or (or (= a_1_2 1) (= a_1_3 1)) (= a_1_8 1)) (= a_1_10 1)) (= a_1_33 1)) (= A1 1)))
(assert (=> (and (and (and (and (= a_1_2 0) (= a_1_3 0)) (= a_1_8 0)) (= a_1_10 0)) (= a_1_33 0)) (= A1 0)))
(assert (=> (or (or (or (or (= a_2_0 1) (= a_2_3 1)) (= a_2_8 1)) (= a_2_10 1)) (= a_2_32 1)) (= A2 1)))
(assert (=> (and (and (and (and (= a_2_0 0) (= a_2_3 0)) (= a_2_8 0)) (= a_2_10 0)) (= a_2_32 0)) (= A2 0)))
(assert (=> (or (or (or (or (= a_3_0 1) (= a_3_2 1)) (= a_3_8 1)) (= a_3_10 1)) (= a_3_32 1)) (= A3 1)))
(assert (=> (and (and (and (and (= a_3_0 0) (= a_3_2 0)) (= a_3_8 0)) (= a_3_10 0)) (= a_3_32 0)) (= A3 0)))
(assert (=> (or (or (or (or (= a_4_0 1) (= a_4_3 1)) (= a_4_8 1)) (= a_4_10 1)) (= a_4_33 1)) (= A4 1)))
(assert (=> (and (and (and (and (= a_4_0 0) (= a_4_3 0)) (= a_4_8 0)) (= a_4_10 0)) (= a_4_33 0)) (= A4 0)))
(assert (=> (or (or (or (or (= a_5_0 1) (= a_5_2 1)) (= a_5_8 1)) (= a_5_10 1)) (= a_5_33 1)) (= A5 1)))
(assert (=> (and (and (and (and (= a_5_0 0) (= a_5_2 0)) (= a_5_8 0)) (= a_5_10 0)) (= a_5_33 0)) (= A5 0)))
(assert (=> (or (or (or (or (= a_6_0 1) (= a_6_2 1)) (= a_6_8 1)) (= a_6_9 1)) (= a_6_32 1)) (= A6 1)))
(assert (=> (and (and (and (and (= a_6_0 0) (= a_6_2 0)) (= a_6_8 0)) (= a_6_9 0)) (= a_6_32 0)) (= A6 0)))
(assert (=> (or (or (or (or (= a_7_0 1) (= a_7_2 1)) (= a_7_8 1)) (= a_7_9 1)) (= a_7_33 1)) (= A7 1)))
(assert (=> (and (and (and (and (= a_7_0 0) (= a_7_2 0)) (= a_7_8 0)) (= a_7_9 0)) (= a_7_33 0)) (= A7 0)))
(assert (=> (or (or (or (or (= a_8_0 1) (= a_8_3 1)) (= a_8_8 1)) (= a_8_9 1)) (= a_8_32 1)) (= A8 1)))
(assert (=> (and (and (and (and (= a_8_0 0) (= a_8_3 0)) (= a_8_8 0)) (= a_8_9 0)) (= a_8_32 0)) (= A8 0)))
(assert (=> (or (or (or (or (= a_9_0 1) (= a_9_3 1)) (= a_9_8 1)) (= a_9_9 1)) (= a_9_33 1)) (= A9 1)))
(assert (=> (and (and (and (and (= a_9_0 0) (= a_9_3 0)) (= a_9_8 0)) (= a_9_9 0)) (= a_9_33 0)) (= A9 0)))
(assert (=> (or (or (or (or (= a_10_2 1) (= a_10_3 1)) (= a_10_8 1)) (= a_10_9 1)) (= a_10_32 1)) (= A10 1)))
(assert (=> (and (and (and (and (= a_10_2 0) (= a_10_3 0)) (= a_10_8 0)) (= a_10_9 0)) (= a_10_32 0)) (= A10 0)))
(assert (=> (or (or (or (or (= a_11_2 1) (= a_11_3 1)) (= a_11_8 1)) (= a_11_9 1)) (= a_11_33 1)) (= A11 1)))
(assert (=> (and (and (and (and (= a_11_2 0) (= a_11_3 0)) (= a_11_8 0)) (= a_11_9 0)) (= a_11_33 0)) (= A11 0)))
(assert (=> (or (or (or (or (= a_12_0 1) (= a_12_2 1)) (= a_12_9 1)) (= a_12_10 1)) (= a_12_32 1)) (= A12 1)))
(assert (=> (and (and (and (and (= a_12_0 0) (= a_12_2 0)) (= a_12_9 0)) (= a_12_10 0)) (= a_12_32 0)) (= A12 0)))
(assert (=> (or (or (or (or (= a_13_0 1) (= a_13_2 1)) (= a_13_9 1)) (= a_13_10 1)) (= a_13_33 1)) (= A13 1)))
(assert (=> (and (and (and (and (= a_13_0 0) (= a_13_2 0)) (= a_13_9 0)) (= a_13_10 0)) (= a_13_33 0)) (= A13 0)))
(assert (=> (or (or (or (or (= a_14_0 1) (= a_14_3 1)) (= a_14_9 1)) (= a_14_10 1)) (= a_14_32 1)) (= A14 1)))
(assert (=> (and (and (and (and (= a_14_0 0) (= a_14_3 0)) (= a_14_9 0)) (= a_14_10 0)) (= a_14_32 0)) (= A14 0)))
(assert (=> (or (or (or (or (= a_15_2 1) (= a_15_3 1)) (= a_15_9 1)) (= a_15_10 1)) (= a_15_32 1)) (= A15 1)))
(assert (=> (and (and (and (and (= a_15_2 0) (= a_15_3 0)) (= a_15_9 0)) (= a_15_10 0)) (= a_15_32 0)) (= A15 0)))
(assert (=> (or (or (or (or (= a_16_0 1) (= a_16_3 1)) (= a_16_9 1)) (= a_16_10 1)) (= a_16_33 1)) (= A16 1)))
(assert (=> (and (and (and (and (= a_16_0 0) (= a_16_3 0)) (= a_16_9 0)) (= a_16_10 0)) (= a_16_33 0)) (= A16 0)))
(assert (=> (or (or (or (or (= a_17_2 1) (= a_17_3 1)) (= a_17_9 1)) (= a_17_10 1)) (= a_17_33 1)) (= A17 1)))
(assert (=> (and (and (and (and (= a_17_2 0) (= a_17_3 0)) (= a_17_9 0)) (= a_17_10 0)) (= a_17_33 0)) (= A17 0)))
(assert (= (+ (+ (+ (+ (+ (+ (+ (+ (+ (+ (+ (+ (+ (+ (+ (+ (+ A0 A1) A2) A3) A4) A5) A6) A7) A8) A9) A10) A11) A12) A13) A14) A15) A16) A17) 18))
(assert (not (and (= s8 1) (= s10 1)) ))
(assert (not (and (= s9 1) (= s10 1)) ))
(assert (not (and (= s8 1) (= s9 1)) ))
(assert (not (and (= s32 1) (= s33 1)) ))
(assert (not (and (= s0 1) (= s3 1)) ))
(assert (not (and (= s0 1) (= s2 1)) ))
(assert (not (and (= s2 1) (= s3 1)) ))
(assert (= (+ (+ (+ (+ (+ (+ (+ (+ (+ (+ (+ (+ (+ (+ (+ (+ (+ (+ (+ (+ (+ (+ (+ (+ (+ (+ (+ (+ (+ (+ (+ (+ (+ (+ (+ (+ (+ (+ (+ (+ s0 s1) s2) s3) s4) s5) s6) s7) s8) s9) s10) s11) s12) s13) s14) s15) s16) s17) s18) s19) s20) s21) s22) s23) s24) s25) s26) s27) s28) s29) s30) s31) s32) s33) s34) s35) s36) s37) s38) s39) s40) 42))
